c Generated map
c Size: 9 * 9, weights in range: 1 to 10, walls: True, with ratio 0.1
c dim 6 of 7
c
p sp 81 116
c graph contains 81 nodes and 116 arcs
c
a 1 10 9
a 10 1 9
a 1 2 7
a 2 1 7
a 2 11 4
a 11 2 4
a 2 3 5
a 3 2 5
a 3 12 7
a 12 3 7
a 3 4 1
a 4 3 1
a 4 13 5
a 13 4 5
a 4 5 9
a 5 4 9
a 5 14 6
a 14 5 6
a 5 6 2
a 6 5 2
a 6 15 9
a 15 6 9
a 6 7 7
a 7 6 7
a 7 16 6
a 16 7 6
a 7 8 3
a 8 7 3
a 8 17 3
a 17 8 3
a 8 9 9
a 9 8 9
a 9 18 5
a 18 9 5
a 10 19 4
a 19 10 4
a 10 11 2
a 11 10 2
a 11 20 7
a 20 11 7
a 11 12 2
a 12 11 2
a 12 21 4
a 21 12 4
a 12 13 7
a 13 12 7
a 13 22 9
a 22 13 9
a 13 14 9
a 14 13 9
a 14 23 6
a 23 14 6
a 14 15 1
a 15 14 1
a 15 24 5
a 24 15 5
a 15 16 8
a 16 15 8
a 16 25 10
a 25 16 10
a 16 17 1
a 17 16 1
a 17 26 2
a 26 17 2
a 17 18 7
a 18 17 7
a 19 28 4
a 28 19 4
a 19 20 6
a 20 19 6
a 20 29 1
a 29 20 1
a 20 21 9
a 21 20 9
a 21 22 5
a 22 21 5
a 22 31 2
a 31 22 2
a 22 23 8
a 23 22 8
a 23 32 2
a 32 23 2
a 23 24 10
a 24 23 10
a 24 33 5
a 33 24 5
a 24 25 2
a 25 24 2
a 25 34 5
a 34 25 5
a 25 26 3
a 26 25 3
a 26 35 6
a 35 26 6
a 28 37 5
a 37 28 5
a 28 29 3
a 29 28 3
a 29 38 5
a 38 29 5
a 31 40 5
a 40 31 5
a 31 32 7
a 32 31 7
a 32 41 7
a 41 32 7
a 32 33 10
a 33 32 10
a 33 42 6
a 42 33 6
a 33 34 7
a 34 33 7
a 34 43 4
a 43 34 4
a 34 35 6
a 35 34 6
a 35 44 2
a 44 35 2
a 35 36 4
a 36 35 4
a 37 46 2
a 46 37 2
a 37 38 6
a 38 37 6
a 38 47 3
a 47 38 3
a 40 49 4
a 49 40 4
a 40 41 3
a 41 40 3
a 41 50 2
a 50 41 2
a 41 42 1
a 42 41 1
a 42 43 2
a 43 42 2
a 43 52 6
a 52 43 6
a 43 44 9
a 44 43 9
a 46 55 4
a 55 46 4
a 46 47 8
a 47 46 8
a 47 56 7
a 56 47 7
a 47 48 4
a 48 47 4
a 48 57 1
a 57 48 1
a 48 49 6
a 49 48 6
a 49 58 9
a 58 49 9
a 49 50 8
a 50 49 8
a 50 59 1
a 59 50 1
a 55 64 6
a 64 55 6
a 55 56 5
a 56 55 5
a 56 65 10
a 65 56 10
a 56 57 6
a 57 56 6
a 57 66 4
a 66 57 4
a 57 58 6
a 58 57 6
a 58 67 2
a 67 58 2
a 58 59 1
a 59 58 1
a 59 68 1
a 68 59 1
a 59 60 3
a 60 59 3
a 60 69 2
a 69 60 2
a 62 71 9
a 71 62 9
a 64 73 8
a 73 64 8
a 64 65 7
a 65 64 7
a 65 74 10
a 74 65 10
a 65 66 10
a 66 65 10
a 66 75 10
a 75 66 10
a 66 67 1
a 67 66 1
a 67 76 9
a 76 67 9
a 67 68 2
a 68 67 2
a 68 77 5
a 77 68 5
a 68 69 3
a 69 68 3
a 69 78 4
a 78 69 4
a 69 70 9
a 70 69 9
a 70 79 10
a 79 70 10
a 70 71 9
a 71 70 9
a 71 80 10
a 80 71 10
a 71 72 5
a 72 71 5
a 72 81 7
a 81 72 7
a 73 74 10
a 74 73 10
a 74 75 2
a 75 74 2
a 75 76 4
a 76 75 4
a 76 77 2
a 77 76 2
a 77 78 1
a 78 77 1
a 78 79 2
a 79 78 2
a 79 80 10
a 80 79 10
a 80 81 6
a 81 80 6
